NAME : A-n64-k9.848149.tour
COMMENT : Length = 848149
COMMENT : Found by LKH [Keld Helsgaun] Sun Dec 17 18:47:50 2017
TYPE : TOUR
DIMENSION : 72
TOUR_SECTION
1
12
31
28
15
36
27
22
45
40
37
41
8
66
16
58
18
2
29
44
13
72
7
33
61
17
9
47
48
64
59
3
68
21
24
38
56
50
60
32
51
70
11
42
57
53
14
62
25
67
46
54
4
63
71
43
10
35
5
6
55
65
26
30
39
19
23
69
34
49
52
20
-1
EOF
